TCS_Benchmarks/redos_fix/corpus3_output_distinct_2410_2409_0_0.smt2
(set-logic QF_S)
(declare-const x String)
(assert (str.in.re x (re.inter  (re.++ (re.* (re.union (re.range "\u{00}" "\u{09}") (re.range "\u{0b}" "\u{0c}") (re.range "\u{0e}" "\u{84}") (re.range "\u{86}" "\u{ff}")) ) (re.+ (re.range "\u{30}" "\u{39}") ))  (re.++ (re.* (re.union (re.range "\u{00}" "\u{09}") (re.range "\u{0b}" "\u{0c}") (re.range "\u{0e}" "\u{84}") (re.range "\u{86}" "\u{ff}")) ) (re.++  (re.++  (str.to.re "\u{2e}") (re.++  (str.to.re "\u{71}") (re.++  (str.to.re "\u{6a}") (re.++  (str.to.re "\u{77}") (re.++  (str.to.re "\u{6d}") (re.++  (str.to.re "\u{2e}") (re.++  (str.to.re "\u{63}") (re.++  (str.to.re "\u{6f}") (re.++  (str.to.re "\u{6d}") (re.++  (str.to.re "\u{2f}") (re.++  (str.to.re "\u{64}") (re.++  (str.to.re "\u{6f}") (re.++  (str.to.re "\u{77}") (re.++  (str.to.re "\u{6e}") (re.++ (re.opt  (re.++  (str.to.re "\u{6c}") (re.++  (str.to.re "\u{6f}") (re.++  (str.to.re "\u{61}")  (str.to.re "\u{64}")))) )  (str.to.re "\u{5f}")))))))))))))))) (re.+ (re.range "\u{30}" "\u{39}") ))) )))
(check-sat)
(get-model)