TCS_Benchmarks/redos_fix/corpus3_output_distinct_2410_2409_0_0.txt
(.*)(\d+)
(.*)(\.qjwm\.com\/down(load)?_)(\d+)